% Logging successfully configured
%%%mzn-stat: initTime=0.003442377
%%%mzn-stat: objective=839
%%%mzn-stat: nodes=130
%%%mzn-stat: restarts=0
%%%mzn-stat: peakDepth=129
%%%mzn-stat: solveTime=0.000838231
%%%mzn-stat: variables=298
%%%mzn-stat: propagators=196
%%%mzn-stat: failures=1
%%%mzn-stat: propagations=661
%%%mzn-stat: nogoods=1
%%%mzn-stat: numAtomicConstraintsPropagated=0
%%%mzn-stat: circuitNumber1PropagationsTotal=33
%%%mzn-stat: circuitNumber1CircuitConflicts=1
%%%mzn-stat: circuitNumber1AlldiffConflicts=0
%%%mzn-stat: circuitNumber1TotalFixedEdgesAtConflict=9
%%%mzn-stat: circuitNumber1NumberOfConflicts=1
%%%mzn-stat: circuitNumber1GacPrunings=64
%%%mzn-stat: circuitNumber1PropagationsThatGacPruned=17
%%%mzn-stat: circuitNumber1TotalPruningHallSetSize=116
%%%mzn-stat: circuitNumber1NumberOfPruningExplanations=64
%%%mzn-stat: circuitNumber1MaxPruningHallSetSize=13
%%%mzn-stat: circuitNumber1TotalSccSizeAtPruning=65
%%%mzn-stat: circuitNumber1NumberOfSccPruningCalls=17
%%%mzn-stat: circuitNumber1TotalVarsInvolvedInPruning=58
%%%mzn-stat: circuitNumber1MaxValuesPrunedFromSingleVar=4
%%%mzn-stat: circuitNumber1HallCircuitChecks=29
%%%mzn-stat: circuitNumber1HallCircuitPrunings=2
%%%mzn-stat: circuitNumber1CircuitPreventPrunings=12
%%%mzn-stat: AverageConflictSize=4
%%%mzn-stat: NumUnitNogoodsLearned=0
%%%mzn-stat: AverageLearnedNogoodLength=11
%%%mzn-stat: AverageBacktrackAmount=0
%%%mzn-stat: AverageLbd=7
%%%mzn-stat: 2AutonomousSearchNumBackupCalled=117
%%%mzn-stat: 2AutonomousSearchNumPredicatesRemoved=0
%%%mzn-stat: 2AutonomousSearchNumCalls=118
%%%mzn-stat: 2AutonomousSearchNumPredicatesAdded=30
%%%mzn-stat: 2AutonomousSearchAverageSizeOfHeap=0.2542372881355932
%%%mzn-stat: 2AutonomousSearchNumAssignedPredicatesEncountered=30
%%%mzn-stat-end
maxleg = 839;
succ = array1d(1..20,[2, 5, 1, 9, 4, 7, 14, 3, 6, 13, 15, 10, 19, 12, 16, 17, 18, 8, 20, 11]);
% time elapsed: 0.20 s
----------
%%%mzn-stat: initTime=0.003442377
%%%mzn-stat: objective=659
%%%mzn-stat: nodes=260
%%%mzn-stat: restarts=0
%%%mzn-stat: peakDepth=131
%%%mzn-stat: solveTime=0.001492999
%%%mzn-stat: variables=298
%%%mzn-stat: propagators=196
%%%mzn-stat: failures=1
%%%mzn-stat: propagations=1010
%%%mzn-stat: nogoods=1
%%%mzn-stat: numAtomicConstraintsPropagated=0
%%%mzn-stat: circuitNumber1PropagationsTotal=63
%%%mzn-stat: circuitNumber1CircuitConflicts=1
%%%mzn-stat: circuitNumber1AlldiffConflicts=0
%%%mzn-stat: circuitNumber1TotalFixedEdgesAtConflict=9
%%%mzn-stat: circuitNumber1NumberOfConflicts=1
%%%mzn-stat: circuitNumber1GacPrunings=117
%%%mzn-stat: circuitNumber1PropagationsThatGacPruned=33
%%%mzn-stat: circuitNumber1TotalPruningHallSetSize=202
%%%mzn-stat: circuitNumber1NumberOfPruningExplanations=117
%%%mzn-stat: circuitNumber1MaxPruningHallSetSize=13
%%%mzn-stat: circuitNumber1TotalSccSizeAtPruning=126
%%%mzn-stat: circuitNumber1NumberOfSccPruningCalls=33
%%%mzn-stat: circuitNumber1TotalVarsInvolvedInPruning=110
%%%mzn-stat: circuitNumber1MaxValuesPrunedFromSingleVar=4
%%%mzn-stat: circuitNumber1HallCircuitChecks=56
%%%mzn-stat: circuitNumber1HallCircuitPrunings=9
%%%mzn-stat: circuitNumber1CircuitPreventPrunings=25
%%%mzn-stat: AverageConflictSize=4
%%%mzn-stat: NumUnitNogoodsLearned=0
%%%mzn-stat: AverageLearnedNogoodLength=11
%%%mzn-stat: AverageBacktrackAmount=0
%%%mzn-stat: AverageLbd=7
%%%mzn-stat: 2AutonomousSearchNumBackupCalled=234
%%%mzn-stat: 2AutonomousSearchNumPredicatesRemoved=0
%%%mzn-stat: 2AutonomousSearchNumCalls=236
%%%mzn-stat: 2AutonomousSearchNumPredicatesAdded=30
%%%mzn-stat: 2AutonomousSearchAverageSizeOfHeap=0.2542372881355932
%%%mzn-stat: 2AutonomousSearchNumAssignedPredicatesEncountered=60
%%%mzn-stat-end
maxleg = 659;
succ = array1d(1..20,[2, 5, 1, 10, 4, 7, 9, 3, 18, 12, 8, 14, 15, 6, 11, 19, 16, 17, 20, 13]);
% time elapsed: 0.20 s
----------
%%%mzn-stat: initTime=0.003442377
%%%mzn-stat: objective=450
%%%mzn-stat: nodes=385
%%%mzn-stat: restarts=0
%%%mzn-stat: peakDepth=131
%%%mzn-stat: solveTime=0.002203951
%%%mzn-stat: variables=298
%%%mzn-stat: propagators=196
%%%mzn-stat: failures=2
%%%mzn-stat: propagations=1369
%%%mzn-stat: nogoods=2
%%%mzn-stat: numAtomicConstraintsPropagated=0
%%%mzn-stat: circuitNumber1PropagationsTotal=96
%%%mzn-stat: circuitNumber1CircuitConflicts=2
%%%mzn-stat: circuitNumber1AlldiffConflicts=0
%%%mzn-stat: circuitNumber1TotalFixedEdgesAtConflict=19
%%%mzn-stat: circuitNumber1NumberOfConflicts=2
%%%mzn-stat: circuitNumber1GacPrunings=174
%%%mzn-stat: circuitNumber1PropagationsThatGacPruned=50
%%%mzn-stat: circuitNumber1TotalPruningHallSetSize=283
%%%mzn-stat: circuitNumber1NumberOfPruningExplanations=174
%%%mzn-stat: circuitNumber1MaxPruningHallSetSize=13
%%%mzn-stat: circuitNumber1TotalSccSizeAtPruning=186
%%%mzn-stat: circuitNumber1NumberOfSccPruningCalls=50
%%%mzn-stat: circuitNumber1TotalVarsInvolvedInPruning=165
%%%mzn-stat: circuitNumber1MaxValuesPrunedFromSingleVar=4
%%%mzn-stat: circuitNumber1HallCircuitChecks=85
%%%mzn-stat: circuitNumber1HallCircuitPrunings=14
%%%mzn-stat: circuitNumber1CircuitPreventPrunings=37
%%%mzn-stat: AverageConflictSize=3
%%%mzn-stat: NumUnitNogoodsLearned=0
%%%mzn-stat: AverageLearnedNogoodLength=14.5
%%%mzn-stat: AverageBacktrackAmount=0
%%%mzn-stat: AverageLbd=7
%%%mzn-stat: 2AutonomousSearchNumBackupCalled=344
%%%mzn-stat: 2AutonomousSearchNumPredicatesRemoved=0
%%%mzn-stat: 2AutonomousSearchNumCalls=347
%%%mzn-stat: 2AutonomousSearchNumPredicatesAdded=67
%%%mzn-stat: 2AutonomousSearchAverageSizeOfHeap=0.3227665706051873
%%%mzn-stat: 2AutonomousSearchNumAssignedPredicatesEncountered=112
%%%mzn-stat-end
maxleg = 450;
succ = array1d(1..20,[2, 5, 8, 1, 7, 9, 12, 11, 18, 4, 15, 14, 10, 6, 13, 19, 16, 17, 20, 3]);
% time elapsed: 0.20 s
----------
%%%mzn-stat: initTime=0.003442377
%%%mzn-stat: objective=430
%%%mzn-stat: nodes=490
%%%mzn-stat: restarts=0
%%%mzn-stat: peakDepth=131
%%%mzn-stat: solveTime=0.002760078
%%%mzn-stat: variables=298
%%%mzn-stat: propagators=196
%%%mzn-stat: failures=2
%%%mzn-stat: propagations=1715
%%%mzn-stat: nogoods=2
%%%mzn-stat: numAtomicConstraintsPropagated=0
%%%mzn-stat: circuitNumber1PropagationsTotal=119
%%%mzn-stat: circuitNumber1CircuitConflicts=2
%%%mzn-stat: circuitNumber1AlldiffConflicts=0
%%%mzn-stat: circuitNumber1TotalFixedEdgesAtConflict=19
%%%mzn-stat: circuitNumber1NumberOfConflicts=2
%%%mzn-stat: circuitNumber1GacPrunings=233
%%%mzn-stat: circuitNumber1PropagationsThatGacPruned=61
%%%mzn-stat: circuitNumber1TotalPruningHallSetSize=482
%%%mzn-stat: circuitNumber1NumberOfPruningExplanations=233
%%%mzn-stat: circuitNumber1MaxPruningHallSetSize=15
%%%mzn-stat: circuitNumber1TotalSccSizeAtPruning=239
%%%mzn-stat: circuitNumber1NumberOfSccPruningCalls=61
%%%mzn-stat: circuitNumber1TotalVarsInvolvedInPruning=214
%%%mzn-stat: circuitNumber1MaxValuesPrunedFromSingleVar=4
%%%mzn-stat: circuitNumber1HallCircuitChecks=109
%%%mzn-stat: circuitNumber1HallCircuitPrunings=17
%%%mzn-stat: circuitNumber1CircuitPreventPrunings=44
%%%mzn-stat: AverageConflictSize=3
%%%mzn-stat: NumUnitNogoodsLearned=0
%%%mzn-stat: AverageLearnedNogoodLength=14.5
%%%mzn-stat: AverageBacktrackAmount=0
%%%mzn-stat: AverageLbd=7
%%%mzn-stat: 2AutonomousSearchNumBackupCalled=438
%%%mzn-stat: 2AutonomousSearchNumPredicatesRemoved=0
%%%mzn-stat: 2AutonomousSearchNumCalls=442
%%%mzn-stat: 2AutonomousSearchNumPredicatesAdded=67
%%%mzn-stat: 2AutonomousSearchAverageSizeOfHeap=0.37104072398190047
%%%mzn-stat: 2AutonomousSearchNumAssignedPredicatesEncountered=164
%%%mzn-stat-end
maxleg = 430;
succ = array1d(1..20,[2, 5, 8, 1, 7, 9, 12, 11, 18, 4, 17, 14, 10, 6, 13, 19, 16, 3, 20, 15]);
% time elapsed: 0.20 s
----------
%%%mzn-stat: initTime=0.003442377
%%%mzn-stat: objective=415
%%%mzn-stat: nodes=593
%%%mzn-stat: restarts=0
%%%mzn-stat: peakDepth=131
%%%mzn-stat: solveTime=0.003452223
%%%mzn-stat: variables=298
%%%mzn-stat: propagators=196
%%%mzn-stat: failures=3
%%%mzn-stat: propagations=2085
%%%mzn-stat: nogoods=3
%%%mzn-stat: numAtomicConstraintsPropagated=0
%%%mzn-stat: circuitNumber1PropagationsTotal=144
%%%mzn-stat: circuitNumber1CircuitConflicts=2
%%%mzn-stat: circuitNumber1AlldiffConflicts=0
%%%mzn-stat: circuitNumber1TotalFixedEdgesAtConflict=19
%%%mzn-stat: circuitNumber1NumberOfConflicts=2
%%%mzn-stat: circuitNumber1GacPrunings=296
%%%mzn-stat: circuitNumber1PropagationsThatGacPruned=74
%%%mzn-stat: circuitNumber1TotalPruningHallSetSize=729
%%%mzn-stat: circuitNumber1NumberOfPruningExplanations=296
%%%mzn-stat: circuitNumber1MaxPruningHallSetSize=15
%%%mzn-stat: circuitNumber1TotalSccSizeAtPruning=313
%%%mzn-stat: circuitNumber1NumberOfSccPruningCalls=74
%%%mzn-stat: circuitNumber1TotalVarsInvolvedInPruning=263
%%%mzn-stat: circuitNumber1MaxValuesPrunedFromSingleVar=4
%%%mzn-stat: circuitNumber1HallCircuitChecks=135
%%%mzn-stat: circuitNumber1HallCircuitPrunings=21
%%%mzn-stat: circuitNumber1CircuitPreventPrunings=52
%%%mzn-stat: AverageConflictSize=4
%%%mzn-stat: NumUnitNogoodsLearned=0
%%%mzn-stat: AverageLearnedNogoodLength=16.666666666666668
%%%mzn-stat: AverageBacktrackAmount=0
%%%mzn-stat: AverageLbd=6.666666666666667
%%%mzn-stat: 2AutonomousSearchNumBackupCalled=530
%%%mzn-stat: 2AutonomousSearchNumPredicatesRemoved=0
%%%mzn-stat: 2AutonomousSearchNumCalls=535
%%%mzn-stat: 2AutonomousSearchNumPredicatesAdded=120
%%%mzn-stat: 2AutonomousSearchAverageSizeOfHeap=0.4803738317757009
%%%mzn-stat: 2AutonomousSearchNumAssignedPredicatesEncountered=257
%%%mzn-stat-end
maxleg = 415;
succ = array1d(1..20,[2, 5, 8, 1, 12, 9, 6, 11, 18, 4, 17, 14, 10, 7, 13, 19, 16, 3, 20, 15]);
% time elapsed: 0.20 s
----------
%%%mzn-stat: initTime=0.003442377
%%%mzn-stat: objective=385
%%%mzn-stat: nodes=696
%%%mzn-stat: restarts=0
%%%mzn-stat: peakDepth=131
%%%mzn-stat: solveTime=0.004251115
%%%mzn-stat: variables=298
%%%mzn-stat: propagators=196
%%%mzn-stat: failures=6
%%%mzn-stat: propagations=2524
%%%mzn-stat: nogoods=6
%%%mzn-stat: numAtomicConstraintsPropagated=0
%%%mzn-stat: circuitNumber1PropagationsTotal=178
%%%mzn-stat: circuitNumber1CircuitConflicts=5
%%%mzn-stat: circuitNumber1AlldiffConflicts=0
%%%mzn-stat: circuitNumber1TotalFixedEdgesAtConflict=58
%%%mzn-stat: circuitNumber1NumberOfConflicts=5
%%%mzn-stat: circuitNumber1GacPrunings=357
%%%mzn-stat: circuitNumber1PropagationsThatGacPruned=90
%%%mzn-stat: circuitNumber1TotalPruningHallSetSize=876
%%%mzn-stat: circuitNumber1NumberOfPruningExplanations=357
%%%mzn-stat: circuitNumber1MaxPruningHallSetSize=15
%%%mzn-stat: circuitNumber1TotalSccSizeAtPruning=369
%%%mzn-stat: circuitNumber1NumberOfSccPruningCalls=90
%%%mzn-stat: circuitNumber1TotalVarsInvolvedInPruning=313
%%%mzn-stat: circuitNumber1MaxValuesPrunedFromSingleVar=5
%%%mzn-stat: circuitNumber1HallCircuitChecks=173
%%%mzn-stat: circuitNumber1HallCircuitPrunings=24
%%%mzn-stat: circuitNumber1CircuitPreventPrunings=63
%%%mzn-stat: AverageConflictSize=3.3333333333333335
%%%mzn-stat: NumUnitNogoodsLearned=0
%%%mzn-stat: AverageLearnedNogoodLength=12.333333333333334
%%%mzn-stat: AverageBacktrackAmount=0
%%%mzn-stat: AverageLbd=5.666666666666667
%%%mzn-stat: 2AutonomousSearchNumBackupCalled=619
%%%mzn-stat: 2AutonomousSearchNumPredicatesRemoved=0
%%%mzn-stat: 2AutonomousSearchNumCalls=625
%%%mzn-stat: 2AutonomousSearchNumPredicatesAdded=195
%%%mzn-stat: 2AutonomousSearchAverageSizeOfHeap=0.6304
%%%mzn-stat: 2AutonomousSearchNumAssignedPredicatesEncountered=394
%%%mzn-stat-end
maxleg = 385;
succ = array1d(1..20,[4, 5, 8, 10, 1, 7, 12, 18, 6, 13, 3, 14, 15, 2, 19, 17, 11, 9, 20, 16]);
% time elapsed: 0.20 s
----------
%%%mzn-stat: initTime=0.003442377
%%%mzn-stat: objective=364
%%%mzn-stat: nodes=786
%%%mzn-stat: restarts=0
%%%mzn-stat: peakDepth=131
%%%mzn-stat: solveTime=0.004809356
%%%mzn-stat: variables=298
%%%mzn-stat: propagators=196
%%%mzn-stat: failures=6
%%%mzn-stat: propagations=2890
%%%mzn-stat: nogoods=6
%%%mzn-stat: numAtomicConstraintsPropagated=0
%%%mzn-stat: circuitNumber1PropagationsTotal=202
%%%mzn-stat: circuitNumber1CircuitConflicts=5
%%%mzn-stat: circuitNumber1AlldiffConflicts=0
%%%mzn-stat: circuitNumber1TotalFixedEdgesAtConflict=58
%%%mzn-stat: circuitNumber1NumberOfConflicts=5
%%%mzn-stat: circuitNumber1GacPrunings=401
%%%mzn-stat: circuitNumber1PropagationsThatGacPruned=102
%%%mzn-stat: circuitNumber1TotalPruningHallSetSize=1041
%%%mzn-stat: circuitNumber1NumberOfPruningExplanations=401
%%%mzn-stat: circuitNumber1MaxPruningHallSetSize=17
%%%mzn-stat: circuitNumber1TotalSccSizeAtPruning=435
%%%mzn-stat: circuitNumber1NumberOfSccPruningCalls=102
%%%mzn-stat: circuitNumber1TotalVarsInvolvedInPruning=349
%%%mzn-stat: circuitNumber1MaxValuesPrunedFromSingleVar=5
%%%mzn-stat: circuitNumber1HallCircuitChecks=200
%%%mzn-stat: circuitNumber1HallCircuitPrunings=26
%%%mzn-stat: circuitNumber1CircuitPreventPrunings=73
%%%mzn-stat: AverageConflictSize=3.3333333333333335
%%%mzn-stat: NumUnitNogoodsLearned=0
%%%mzn-stat: AverageLearnedNogoodLength=12.333333333333334
%%%mzn-stat: AverageBacktrackAmount=0
%%%mzn-stat: AverageLbd=5.666666666666667
%%%mzn-stat: 2AutonomousSearchNumBackupCalled=698
%%%mzn-stat: 2AutonomousSearchNumPredicatesRemoved=0
%%%mzn-stat: 2AutonomousSearchNumCalls=705
%%%mzn-stat: 2AutonomousSearchNumPredicatesAdded=195
%%%mzn-stat: 2AutonomousSearchAverageSizeOfHeap=0.7531914893617021
%%%mzn-stat: 2AutonomousSearchNumAssignedPredicatesEncountered=531
%%%mzn-stat-end
maxleg = 364;
succ = array1d(1..20,[4, 5, 8, 10, 1, 7, 12, 18, 6, 13, 15, 14, 19, 2, 16, 17, 3, 9, 20, 11]);
% time elapsed: 0.20 s
----------
==========
% time elapsed: 0.20 s
%%%mzn-stat: initTime=0.003442377
%%%mzn-stat: objective=364
%%%mzn-stat: nodes=786
%%%mzn-stat: restarts=0
%%%mzn-stat: peakDepth=131
%%%mzn-stat: solveTime=0.004961529
%%%mzn-stat: variables=298
%%%mzn-stat: propagators=196
%%%mzn-stat: failures=7
%%%mzn-stat: propagations=2975
%%%mzn-stat: nogoods=7
%%%mzn-stat: numAtomicConstraintsPropagated=0
%%%mzn-stat: circuitNumber1PropagationsTotal=203
%%%mzn-stat: circuitNumber1CircuitConflicts=5
%%%mzn-stat: circuitNumber1AlldiffConflicts=0
%%%mzn-stat: circuitNumber1TotalFixedEdgesAtConflict=58
%%%mzn-stat: circuitNumber1NumberOfConflicts=5
%%%mzn-stat: circuitNumber1GacPrunings=413
%%%mzn-stat: circuitNumber1PropagationsThatGacPruned=103
%%%mzn-stat: circuitNumber1TotalPruningHallSetSize=1161
%%%mzn-stat: circuitNumber1NumberOfPruningExplanations=413
%%%mzn-stat: circuitNumber1MaxPruningHallSetSize=19
%%%mzn-stat: circuitNumber1TotalSccSizeAtPruning=472
%%%mzn-stat: circuitNumber1NumberOfSccPruningCalls=103
%%%mzn-stat: circuitNumber1TotalVarsInvolvedInPruning=356
%%%mzn-stat: circuitNumber1MaxValuesPrunedFromSingleVar=6
%%%mzn-stat: circuitNumber1HallCircuitChecks=201
%%%mzn-stat: circuitNumber1HallCircuitPrunings=26
%%%mzn-stat: circuitNumber1CircuitPreventPrunings=74
%%%mzn-stat: AverageConflictSize=3.142857142857143
%%%mzn-stat: NumUnitNogoodsLearned=1
%%%mzn-stat: AverageLearnedNogoodLength=10.714285714285714
%%%mzn-stat: AverageBacktrackAmount=0
%%%mzn-stat: AverageLbd=5
%%%mzn-stat: 2AutonomousSearchNumBackupCalled=698
%%%mzn-stat: 2AutonomousSearchNumPredicatesRemoved=0
%%%mzn-stat: 2AutonomousSearchNumCalls=705
%%%mzn-stat: 2AutonomousSearchNumPredicatesAdded=315
%%%mzn-stat: 2AutonomousSearchAverageSizeOfHeap=0.7531914893617021
%%%mzn-stat: 2AutonomousSearchNumAssignedPredicatesEncountered=531
%%%mzn-stat-end
